NAME : PR75B
TYPE : PDTSP
DIMENSION : 75
EDGE_WEIGHT_TYPE : EUC_2D
NODE_COORD_SECTION
1 3600 2300
2 3100 3300
3 4700 5750
4 5400 5750
5 5608 7103
6 4493 7102
7 3600 6950
8 3100 7250
9 4700 8450
10 5400 8450
11 5610 10053
12 4492 10052
13 3600 10800
14 3100 10950
15 4700 11650
16 5400 11650
17 6650 10800
18 7300 10950
19 7300 7250
20 7300 3300
21 6650 2300
22 5400 1600
23 8350 2300
24 7850 3300
25 9450 5750
26 10150 5750
27 10358 7103
28 9243 7102
29 8350 6950
30 7850 7250
31 9450 8450
32 10150 8450
33 10360 10053
34 9242 10052
35 8350 10800
36 7850 10950
37 9450 11650
38 10150 11650
39 11400 10800
40 12050 10950
41 12050 7250
42 11400 6950
43 12050 3300
44 11400 2300
45 10150 1600
46 13100 2300
47 12600 3300
48 14200 5750
49 14900 5750
50 15108 7103
51 13993 7102
52 13100 6950
53 12600 7250
54 14200 8450
55 14900 8450
56 15110 10053
57 13992 10052
58 13100 10800
59 12600 10950
60 14200 11650
61 14900 11650
62 16150 10800
63 16800 10950
64 16800 7250
65 16150 6950
66 16800 3300
67 16150 2300
68 14900 1600
69 19800 800
70 19800 10000
71 19800 11900
72 19800 12200
73 200 12200
74 200 1100
75 200 800
PICKUP_AND_DELIVERY_SECTION
1 0 0 0 0 0 0
2 0 0 0 0 6 0
3 0 0 0 0 7 0
4 0 0 0 0 0 14
5 0 0 0 0 0 11
6 0 0 0 0 0 2
7 0 0 0 0 0 3
8 0 0 0 0 0 9
9 0 0 0 0 8 0
10 0 0 0 0 12 0
11 0 0 0 0 5 0
12 0 0 0 0 0 10
13 0 0 0 0 18 0
14 0 0 0 0 4 0
15 0 0 0 0 73 0
16 0 0 0 0 38 0
17 0 0 0 0 32 0
18 0 0 0 0 0 13
19 0 0 0 0 37 0
20 0 0 0 0 0 75
21 0 0 0 0 28 0
22 0 0 0 0 0 47
23 0 0 0 0 52 0
24 0 0 0 0 45 0
25 0 0 0 0 0 41
26 0 0 0 0 30 0
27 0 0 0 0 39 0
28 0 0 0 0 0 21
29 0 0 0 0 0 36
30 0 0 0 0 0 26
31 0 0 0 0 40 0
32 0 0 0 0 0 17
33 0 0 0 0 0 34
34 0 0 0 0 33 0
35 0 0 0 0 72 0
36 0 0 0 0 29 0
37 0 0 0 0 0 19
38 0 0 0 0 0 16
39 0 0 0 0 0 27
40 0 0 0 0 0 31
41 0 0 0 0 25 0
42 0 0 0 0 0 46
43 0 0 0 0 0 67
44 0 0 0 0 0 74
45 0 0 0 0 0 24
46 0 0 0 0 42 0
47 0 0 0 0 22 0
48 0 0 0 0 0 56
49 0 0 0 0 0 70
50 0 0 0 0 0 53
51 0 0 0 0 0 64
52 0 0 0 0 0 23
53 0 0 0 0 50 0
54 0 0 0 0 65 0
55 0 0 0 0 0 63
56 0 0 0 0 48 0
57 0 0 0 0 61 0
58 0 0 0 0 0 71
59 0 0 0 0 0 60
60 0 0 0 0 59 0
61 0 0 0 0 0 57
62 0 0 0 0 66 0
63 0 0 0 0 55 0
64 0 0 0 0 51 0
65 0 0 0 0 0 54
66 0 0 0 0 0 62
67 0 0 0 0 43 0
68 0 0 0 0 69 0
69 0 0 0 0 0 68
70 0 0 0 0 49 0
71 0 0 0 0 58 0
72 0 0 0 0 0 35
73 0 0 0 0 0 15
74 0 0 0 0 44 0
75 0 0 0 0 20 0
DEPOT_SECTION
1 
-1
EOF
